language ESSENCE' 1.0

letting R_FunctionND be
        [[1, 1, 3, 1, 1; int(1..5)], [1, 2, 3, 4, 5; int(1..5)], [3, 3, 3, 3, 3; int(1..5)], [1, 4, 3, 4, 1; int(1..5)],
         [1, 5, 3, 1, 5; int(1..5)];
             int(1..5)]
$ Visualisation for R_FunctionND
$ 1 1 3 1 1
$ 1 2 3 4 5
$ 3 3 3 3 3
$ 1 4 3 4 1
$ 1 5 3 1 5

letting T_FunctionND be
        [[1, 2, 1, 4, 5; int(1..5)], [2, 2, 2, 2, 2; int(1..5)], [1, 2, 3, 4, 5; int(1..5)], [4, 2, 4, 4, 2; int(1..5)],
         [5, 2, 5, 2, 5; int(1..5)];
             int(1..5)]
$ Visualisation for T_FunctionND
$ 1 2 1 4 5
$ 2 2 2 2 2
$ 1 2 3 4 5
$ 4 2 4 4 2
$ 5 2 5 2 5

letting e be 2
letting t be 3
